\ENCODING=ISO-8859-1
\Problem name: ilog.cplex

Maximize
 obj: u0 + u1 + u2 + u3 + u4 - u5 - u6 - u7 - u8 - u9 + x21
Subject To
 c1:  u0 - u5 <= 2
 c3:  u1 - u6 <= 3
 c5:  u2 - u7 <= 4
 c7:  u3 - u8 <= 5
 c9:  u4 - u9 <= 7
 c11: u0 - u10 <= 4
 c13: u1 - u11 <= 3
 c15: u2 - u12 <= 1
 c17: u3 - u13 <= 2
 c19: u4 - u14 <= 6
 c21: u0 - u15 <= 5
 c23: u1 - u16 <= 4
 c25: u2 - u17 <= 2
 c26: u3 - u18 <= 1
 c27: u4 - u19 <= 3
Bounds
      x21 = 2
End
